50

100 8 202
96 26 309
94 35 208
93 39 347
91 44 225
91 37 404
91 41 196
88 38 325
84 13 347
83 11 371
80 33 307
78 8 174
78 8 377
76 13 413
75 14 251
74 19 403
72 4 268
72 15 200
70 4 312
65 17 243
61 10 442
60 11 441
56 28 178
52 20 238
51 26 446
51 21 353
48 7 430
46 19 279
45 21 295
38 19 406
38 19 400
37 10 450
37 1 387
37 17 204
36 3 217
35 4 276
35 1 377
32 14 206
32 4 173
31 6 392
30 1 303
29 4 222
29 1 234
28 9 449
27 6 362
27 2 419
23 6 413
23 10 273
22 6 413
21 3 399
